
Gurobi 12.0.0 (win64) logging started Wed May 13 21:49:52 2026

Set parameter LogFile to value "C:\Users\Asus\Documents\GitHub\internal-logistics-model2\internal-logistics-model2\results\SR_SV_RD\case1\result_SR_SV_RD_case1_P5_eps9999_2026_05_13_21_49.log"
Gurobi Optimizer version 12.0.0 build v12.0.0rc1 (win64 - Windows 10.0 (19045.2))

CPU model: 12th Gen Intel(R) Core(TM) i7-12650H, instruction set [SSE2|AVX|AVX2]
Thread count: 10 physical cores, 16 logical processors, using up to 16 threads

Non-default parameters:
TimeLimit  1200
MIPGap  0.01
Presolve  2

Optimize a model with 578 rows, 183 columns and 2715 nonzeros
Model fingerprint: 0x504518b9
Variable types: 58 continuous, 125 integer (115 binary)
Coefficient statistics:
  Matrix range     [1e+00, 5e+02]
  Objective range  [1e-03, 1e+00]
  Bounds range     [1e+00, 5e+02]
  RHS range        [1e+00, 1e+04]
Presolve removed 160 rows and 52 columns
Presolve time: 0.01s
Presolved: 418 rows, 131 columns, 2517 nonzeros
Variable types: 26 continuous, 105 integer (95 binary)
Found heuristic solution: objective 126.2610000
Root relaxation presolve removed 1 rows and 0 columns
Root relaxation presolved: 417 rows, 131 columns, 2507 nonzeros


Root relaxation: objective 6.704400e+01, 59 iterations, 0.00 seconds (0.00 work units)

    Nodes    |    Current Node    |     Objective Bounds      |     Work
 Expl Unexpl |  Obj  Depth IntInf | Incumbent    BestBd   Gap | It/Node Time

     0     0   67.04400    0   16  126.26100   67.04400  46.9%     -    0s
H    0     0                     109.2530000   67.04400  38.6%     -    0s
H    0     0                     109.2430000   67.04400  38.6%     -    0s
H    0     0                     106.2370000   67.04400  36.9%     -    0s
H    0     0                     103.2230000   67.04400  35.0%     -    0s
     0     0   67.04400    0   30  103.22300   67.04400  35.0%     -    0s
H    0     0                      96.1880000   67.04400  30.3%     -    0s
H    0     0                      96.1530000   67.04400  30.3%     -    0s
H    0     0                      94.1630000   67.04400  28.8%     -    0s
H    0     0                      90.1590000   67.04400  25.6%     -    0s
H    0     0                      87.1660000   67.04400  23.1%     -    0s
     0     0   67.04400    0   17   87.16600   67.04400  23.1%     -    0s
     0     0   67.04400    0   26   87.16600   67.04400  23.1%     -    0s
     0     0   67.04630    0   26   87.16600   67.04630  23.1%     -    0s
H    0     0                      87.1630000   67.04650  23.1%     -    0s
     0     0   67.04650    0   31   87.16300   67.04650  23.1%     -    0s
     0     0   67.05094    0   29   87.16300   67.05094  23.1%     -    0s
     0     0   67.05102    0   33   87.16300   67.05102  23.1%     -    0s
     0     0   67.05175    0   43   87.16300   67.05175  23.1%     -    0s
H    0     0                      84.1260000   67.05178  20.3%     -    0s
     0     0   67.05178    0   35   84.12600   67.05178  20.3%     -    0s
     0     0   67.05190    0   41   84.12600   67.05190  20.3%     -    0s
     0     0   67.05211    0   23   84.12600   67.05211  20.3%     -    0s
     0     0   67.05218    0   34   84.12600   67.05218  20.3%     -    0s
H    0     0                      80.0970000   67.05219  16.3%     -    0s
     0     0   67.05219    0   38   80.09700   67.05219  16.3%     -    0s
     0     0   67.05225    0   46   80.09700   67.05225  16.3%     -    0s
     0     0   67.05234    0   36   80.09700   67.05234  16.3%     -    0s
     0     0   67.05256    0   25   80.09700   67.05256  16.3%     -    0s
     0     0   67.05260    0   33   80.09700   67.05260  16.3%     -    0s
     0     0   67.05268    0   32   80.09700   67.05268  16.3%     -    0s
     0     0   67.05279    0   30   80.09700   67.05279  16.3%     -    0s
     0     0   67.05279    0   30   80.09700   67.05279  16.3%     -    0s
     0     0   67.05279    0   27   80.09700   67.05279  16.3%     -    0s
H    0     0                      77.0920000   67.05279  13.0%     -    0s
     0     2   67.05337    0   27   77.09200   67.05337  13.0%     -    0s

Cutting planes:
  Learned: 7
  Gomory: 3
  Cover: 35
  Implied bound: 55
  Projected implied bound: 6
  MIR: 62
  StrongCG: 2
  Flow cover: 76
  Inf proof: 7
  Zero half: 2
  RLT: 4
  Relax-and-lift: 48
  PSD: 1

Explored 16758 nodes (451179 simplex iterations) in 2.44 seconds (2.59 work units)
Thread count was 16 (of 16 available processors)

Solution count 10: 77.092 80.097 84.126 ... 103.223

Optimal solution found (tolerance 1.00e-02)
Best objective 7.709200000000e+01, best bound 7.709199999999e+01, gap 0.0000%
